Optimize a model with 401 rows, 440 columns and 2508 nonzeros
Model has 1 quadratic constraint
Coefficient statistics:
  Matrix range    [1e+00, 2e+01]
  Objective range [1e+02, 7e+02]
  Bounds range    [1e+00, 2e+01]
  RHS range       [1e+00, 2e+01]
Presolve removed 0 rows and 22 columns
Presolve time: 0.02s
Presolved: 763 rows, 779 columns, 3952 nonzeros
Variable types: 0 continuous, 779 integer (760 binary)

Root relaxation: objective 2.800000e+02, 18 iterations, 0.00 seconds

    Nodes    |    Current Node    |     Objective Bounds      |     Work
 Expl Unexpl |  Obj  Depth IntInf | Incumbent    BestBd   Gap | It/Node Time

     0     0  280.00000    0   11          -  280.00000      -     -    0s
     0     0  280.00000    0   11          -  280.00000      -     -    0s
     0     0  280.00000    0   12          -  280.00000      -     -    0s
     0     0  280.00000    0   14          -  280.00000      -     -    0s
     0     0  280.00000    0   11          -  280.00000      -     -    0s
     0     0  280.00000    0   11          -  280.00000      -     -    0s
H    0     0                    4053.0000000  280.00000  93.1%     -    0s
     0     2  280.00000    0   10 4053.00000  280.00000  93.1%     -    0s
H  324   324                    2977.0000000  384.00000  87.1%   1.6    0s
H  512   460                    1619.0000000 1042.06367  35.6%   2.9    0s
*  608   461              24    1613.0000000 1248.62003  22.6%   4.5    0s
*  612   429              18    1523.0000000 1257.10405  17.5%   4.5    0s
*  633   402              32    1468.0000000 1257.10405  14.4%   4.5    0s
*  639   370              17    1410.0000000 1258.28671  10.8%   4.6    0s

Cutting planes:
  Learned: 5
  Implied bound: 1

Explored 810 nodes (4579 simplex iterations) in 0.97 seconds
Thread count was 1 (of 4 available processors)

Optimal solution found (tolerance 1.00e-04)
Best objective 1.410000000000e+03, best bound 1.410000000000e+03, gap 0.0%
1410
(3,0) (0,7) (19,3) (6,4) (4,11) (13,6) (7,13) (11,19) 
